% instance size is  20
nitems= 20 ;
capacity= 4623 ;
gain= [786, 1115, 456, 472, 478, 829, 498, 832, 635, 1191, 1171, 215, 583, 1122, 283, 840, 370, 670, 887, 306] ;
weight= [586, 915, 156, 272, 278, 629, 198, 632, 435, 991, 971, 15, 383, 822, 83, 640, 170, 470, 687, 6] ;
